
Gurobi 7.0.2 (linux64, Matlab) logging started Sun Sep  2 08:55:05 2018


Gurobi 7.0.2 (linux64) logging started Sun Sep  2 08:55:05 2018

Optimize a model with 1802 rows, 10825 columns and 176976 nonzeros
Coefficient statistics:
  Matrix range     [1e+00, 1e+08]
  Objective range  [2e+02, 1e+08]
  Bounds range     [1e+00, 1e+06]
  RHS range        [1e+00, 1e+10]
Warning: Model contains large rhs
         Consider reformulating model or setting NumericFocus parameter
         to avoid numerical issues.
Iteration    Objective       Primal Inf.    Dual Inf.      Time
       0    6.5560661e+06   0.000000e+00   0.000000e+00      0s

Solved in 0 iterations and 0.01 seconds
Optimal objective  6.556066068e+06
